1 1757
2 1377
12 1365
13 1340
19 1322
45 1307
123 1262
364 1261
414 1236



1 1622
2 1466
3 1431
5 1396
6 1366
13 1356
18 1339
27 1335
40 1302
84 1296
95 1294
274 1291
379 1288
412 1278
482 1255



1 1509
2 1441
5 1416
7 1401
11 1373
12 1366
13 1353
30 1352
38 1345
40 1338
54 1328
62 1285
66 1272
461 1271
664 1266



1 1540
2 1373
7 1364
14 1348
27 1343
33 1338
40 1322
72 1320
97 1318
112 1317
135 1296
141 1288
351 1264



1 1630
2 1482
3 1439
4 1403
6 1377
17 1308
58 1296
64 1275
128 1249
731 1235



